\ Model Super-Permutation_2
\ LP format - for model browsing. Use MPS format to capture full model detail.
\ Signature: 0x57305f625d0ca7a2
Minimize
  f[1] + f[2] + f[3] + f[4]
Subject To
 Eq.1__s=(1,_2),_j=1,_i=1: x[1] - y[(1,_2),1,1] = 1
 Eq.2a__s=(1,_2),_j=1,_i=1: y[(1,_2),1,1] - 1e+08 h[(1,_2),1,1] <= 0
 Eq.2b__s=(1,_2),_j=1,_i=1: y[(1,_2),1,1] - 1e+08 h[(1,_2),1,1] >= -1e+08
 Eq.2c__s=(1,_2),_j=1,_i=1: - y[(1,_2),1,1] + g[(1,_2),1,1]
   + 1e+08 h[(1,_2),1,1] <= 1e+08
 Eq.2d__s=(1,_2),_j=1,_i=1: - y[(1,_2),1,1] + 1e+08 g[(1,_2),1,1]
   - 1e+08 h[(1,_2),1,1] >= -1e+08
 Eq.2e__s=(1,_2),_j=1,_i=1: y[(1,_2),1,1] + g[(1,_2),1,1]
   - 1e+08 h[(1,_2),1,1] <= 0
 Eq.2f__s=(1,_2),_j=1,_i=1: y[(1,_2),1,1] + 1e+08 g[(1,_2),1,1]
   + 1e+08 h[(1,_2),1,1] >= 0
 Eq.1__s=(1,_2),_j=2,_i=1: x[2] - y[(1,_2),2,1] = 1
 Eq.2a__s=(1,_2),_j=2,_i=1: y[(1,_2),2,1] - 1e+08 h[(1,_2),2,1] <= 0
 Eq.2b__s=(1,_2),_j=2,_i=1: y[(1,_2),2,1] - 1e+08 h[(1,_2),2,1] >= -1e+08
 Eq.2c__s=(1,_2),_j=2,_i=1: - y[(1,_2),2,1] + g[(1,_2),2,1]
   + 1e+08 h[(1,_2),2,1] <= 1e+08
 Eq.2d__s=(1,_2),_j=2,_i=1: - y[(1,_2),2,1] + 1e+08 g[(1,_2),2,1]
   - 1e+08 h[(1,_2),2,1] >= -1e+08
 Eq.2e__s=(1,_2),_j=2,_i=1: y[(1,_2),2,1] + g[(1,_2),2,1]
   - 1e+08 h[(1,_2),2,1] <= 0
 Eq.2f__s=(1,_2),_j=2,_i=1: y[(1,_2),2,1] + 1e+08 g[(1,_2),2,1]
   + 1e+08 h[(1,_2),2,1] >= 0
 Eq.1__s=(1,_2),_j=3,_i=1: x[3] - y[(1,_2),3,1] = 1
 Eq.2a__s=(1,_2),_j=3,_i=1: y[(1,_2),3,1] - 1e+08 h[(1,_2),3,1] <= 0
 Eq.2b__s=(1,_2),_j=3,_i=1: y[(1,_2),3,1] - 1e+08 h[(1,_2),3,1] >= -1e+08
 Eq.2c__s=(1,_2),_j=3,_i=1: - y[(1,_2),3,1] + g[(1,_2),3,1]
   + 1e+08 h[(1,_2),3,1] <= 1e+08
 Eq.2d__s=(1,_2),_j=3,_i=1: - y[(1,_2),3,1] + 1e+08 g[(1,_2),3,1]
   - 1e+08 h[(1,_2),3,1] >= -1e+08
 Eq.2e__s=(1,_2),_j=3,_i=1: y[(1,_2),3,1] + g[(1,_2),3,1]
   - 1e+08 h[(1,_2),3,1] <= 0
 Eq.2f__s=(1,_2),_j=3,_i=1: y[(1,_2),3,1] + 1e+08 g[(1,_2),3,1]
   + 1e+08 h[(1,_2),3,1] >= 0
 Eq.1__s=(1,_2),_j=1,_i=2: x[2] - y[(1,_2),1,2] = 2
 Eq.2a__s=(1,_2),_j=1,_i=2: y[(1,_2),1,2] - 1e+08 h[(1,_2),1,2] <= 0
 Eq.2b__s=(1,_2),_j=1,_i=2: y[(1,_2),1,2] - 1e+08 h[(1,_2),1,2] >= -1e+08
 Eq.2c__s=(1,_2),_j=1,_i=2: - y[(1,_2),1,2] + g[(1,_2),1,2]
   + 1e+08 h[(1,_2),1,2] <= 1e+08
 Eq.2d__s=(1,_2),_j=1,_i=2: - y[(1,_2),1,2] + 1e+08 g[(1,_2),1,2]
   - 1e+08 h[(1,_2),1,2] >= -1e+08
 Eq.2e__s=(1,_2),_j=1,_i=2: y[(1,_2),1,2] + g[(1,_2),1,2]
   - 1e+08 h[(1,_2),1,2] <= 0
 Eq.2f__s=(1,_2),_j=1,_i=2: y[(1,_2),1,2] + 1e+08 g[(1,_2),1,2]
   + 1e+08 h[(1,_2),1,2] >= 0
 Eq.1__s=(1,_2),_j=2,_i=2: x[3] - y[(1,_2),2,2] = 2
 Eq.2a__s=(1,_2),_j=2,_i=2: y[(1,_2),2,2] - 1e+08 h[(1,_2),2,2] <= 0
 Eq.2b__s=(1,_2),_j=2,_i=2: y[(1,_2),2,2] - 1e+08 h[(1,_2),2,2] >= -1e+08
 Eq.2c__s=(1,_2),_j=2,_i=2: - y[(1,_2),2,2] + g[(1,_2),2,2]
   + 1e+08 h[(1,_2),2,2] <= 1e+08
 Eq.2d__s=(1,_2),_j=2,_i=2: - y[(1,_2),2,2] + 1e+08 g[(1,_2),2,2]
   - 1e+08 h[(1,_2),2,2] >= -1e+08
 Eq.2e__s=(1,_2),_j=2,_i=2: y[(1,_2),2,2] + g[(1,_2),2,2]
   - 1e+08 h[(1,_2),2,2] <= 0
 Eq.2f__s=(1,_2),_j=2,_i=2: y[(1,_2),2,2] + 1e+08 g[(1,_2),2,2]
   + 1e+08 h[(1,_2),2,2] >= 0
 Eq.1__s=(1,_2),_j=3,_i=2: x[4] - y[(1,_2),3,2] = 2
 Eq.2a__s=(1,_2),_j=3,_i=2: y[(1,_2),3,2] - 1e+08 h[(1,_2),3,2] <= 0
 Eq.2b__s=(1,_2),_j=3,_i=2: y[(1,_2),3,2] - 1e+08 h[(1,_2),3,2] >= -1e+08
 Eq.2c__s=(1,_2),_j=3,_i=2: - y[(1,_2),3,2] + g[(1,_2),3,2]
   + 1e+08 h[(1,_2),3,2] <= 1e+08
 Eq.2d__s=(1,_2),_j=3,_i=2: - y[(1,_2),3,2] + 1e+08 g[(1,_2),3,2]
   - 1e+08 h[(1,_2),3,2] >= -1e+08
 Eq.2e__s=(1,_2),_j=3,_i=2: y[(1,_2),3,2] + g[(1,_2),3,2]
   - 1e+08 h[(1,_2),3,2] <= 0
 Eq.2f__s=(1,_2),_j=3,_i=2: y[(1,_2),3,2] + 1e+08 g[(1,_2),3,2]
   + 1e+08 h[(1,_2),3,2] >= 0
 Eq.3a__s=(1,_2),_j=1: g[(1,_2),1,1] + g[(1,_2),1,2] + 1e+08 z[(1,_2),1]
   <= 1e+08
 Eq.3b__s=(1,_2),_j=1: g[(1,_2),1,1] + g[(1,_2),1,2] + z[(1,_2),1] >= 1
 Eq.3a__s=(1,_2),_j=2: g[(1,_2),2,1] + g[(1,_2),2,2] + 1e+08 z[(1,_2),2]
   <= 1e+08
 Eq.3b__s=(1,_2),_j=2: g[(1,_2),2,1] + g[(1,_2),2,2] + z[(1,_2),2] >= 1
 Eq.3a__s=(1,_2),_j=3: g[(1,_2),3,1] + g[(1,_2),3,2] + 1e+08 z[(1,_2),3]
   <= 1e+08
 Eq.3b__s=(1,_2),_j=3: g[(1,_2),3,1] + g[(1,_2),3,2] + z[(1,_2),3] >= 1
 Eq.3c__s=(1,_2): z[(1,_2),1] + z[(1,_2),2] + z[(1,_2),3] >= 1
 Eq.1__s=(2,_1),_j=1,_i=1: x[1] - y[(2,_1),1,1] = 2
 Eq.2a__s=(2,_1),_j=1,_i=1: y[(2,_1),1,1] - 1e+08 h[(2,_1),1,1] <= 0
 Eq.2b__s=(2,_1),_j=1,_i=1: y[(2,_1),1,1] - 1e+08 h[(2,_1),1,1] >= -1e+08
 Eq.2c__s=(2,_1),_j=1,_i=1: - y[(2,_1),1,1] + g[(2,_1),1,1]
   + 1e+08 h[(2,_1),1,1] <= 1e+08
 Eq.2d__s=(2,_1),_j=1,_i=1: - y[(2,_1),1,1] + 1e+08 g[(2,_1),1,1]
   - 1e+08 h[(2,_1),1,1] >= -1e+08
 Eq.2e__s=(2,_1),_j=1,_i=1: y[(2,_1),1,1] + g[(2,_1),1,1]
   - 1e+08 h[(2,_1),1,1] <= 0
 Eq.2f__s=(2,_1),_j=1,_i=1: y[(2,_1),1,1] + 1e+08 g[(2,_1),1,1]
   + 1e+08 h[(2,_1),1,1] >= 0
 Eq.1__s=(2,_1),_j=2,_i=1: x[2] - y[(2,_1),2,1] = 2
 Eq.2a__s=(2,_1),_j=2,_i=1: y[(2,_1),2,1] - 1e+08 h[(2,_1),2,1] <= 0
 Eq.2b__s=(2,_1),_j=2,_i=1: y[(2,_1),2,1] - 1e+08 h[(2,_1),2,1] >= -1e+08
 Eq.2c__s=(2,_1),_j=2,_i=1: - y[(2,_1),2,1] + g[(2,_1),2,1]
   + 1e+08 h[(2,_1),2,1] <= 1e+08
 Eq.2d__s=(2,_1),_j=2,_i=1: - y[(2,_1),2,1] + 1e+08 g[(2,_1),2,1]
   - 1e+08 h[(2,_1),2,1] >= -1e+08
 Eq.2e__s=(2,_1),_j=2,_i=1: y[(2,_1),2,1] + g[(2,_1),2,1]
   - 1e+08 h[(2,_1),2,1] <= 0
 Eq.2f__s=(2,_1),_j=2,_i=1: y[(2,_1),2,1] + 1e+08 g[(2,_1),2,1]
   + 1e+08 h[(2,_1),2,1] >= 0
 Eq.1__s=(2,_1),_j=3,_i=1: x[3] - y[(2,_1),3,1] = 2
 Eq.2a__s=(2,_1),_j=3,_i=1: y[(2,_1),3,1] - 1e+08 h[(2,_1),3,1] <= 0
 Eq.2b__s=(2,_1),_j=3,_i=1: y[(2,_1),3,1] - 1e+08 h[(2,_1),3,1] >= -1e+08
 Eq.2c__s=(2,_1),_j=3,_i=1: - y[(2,_1),3,1] + g[(2,_1),3,1]
   + 1e+08 h[(2,_1),3,1] <= 1e+08
 Eq.2d__s=(2,_1),_j=3,_i=1: - y[(2,_1),3,1] + 1e+08 g[(2,_1),3,1]
   - 1e+08 h[(2,_1),3,1] >= -1e+08
 Eq.2e__s=(2,_1),_j=3,_i=1: y[(2,_1),3,1] + g[(2,_1),3,1]
   - 1e+08 h[(2,_1),3,1] <= 0
 Eq.2f__s=(2,_1),_j=3,_i=1: y[(2,_1),3,1] + 1e+08 g[(2,_1),3,1]
   + 1e+08 h[(2,_1),3,1] >= 0
 Eq.1__s=(2,_1),_j=1,_i=2: x[2] - y[(2,_1),1,2] = 1
 Eq.2a__s=(2,_1),_j=1,_i=2: y[(2,_1),1,2] - 1e+08 h[(2,_1),1,2] <= 0
 Eq.2b__s=(2,_1),_j=1,_i=2: y[(2,_1),1,2] - 1e+08 h[(2,_1),1,2] >= -1e+08
 Eq.2c__s=(2,_1),_j=1,_i=2: - y[(2,_1),1,2] + g[(2,_1),1,2]
   + 1e+08 h[(2,_1),1,2] <= 1e+08
 Eq.2d__s=(2,_1),_j=1,_i=2: - y[(2,_1),1,2] + 1e+08 g[(2,_1),1,2]
   - 1e+08 h[(2,_1),1,2] >= -1e+08
 Eq.2e__s=(2,_1),_j=1,_i=2: y[(2,_1),1,2] + g[(2,_1),1,2]
   - 1e+08 h[(2,_1),1,2] <= 0
 Eq.2f__s=(2,_1),_j=1,_i=2: y[(2,_1),1,2] + 1e+08 g[(2,_1),1,2]
   + 1e+08 h[(2,_1),1,2] >= 0
 Eq.1__s=(2,_1),_j=2,_i=2: x[3] - y[(2,_1),2,2] = 1
 Eq.2a__s=(2,_1),_j=2,_i=2: y[(2,_1),2,2] - 1e+08 h[(2,_1),2,2] <= 0
 Eq.2b__s=(2,_1),_j=2,_i=2: y[(2,_1),2,2] - 1e+08 h[(2,_1),2,2] >= -1e+08
 Eq.2c__s=(2,_1),_j=2,_i=2: - y[(2,_1),2,2] + g[(2,_1),2,2]
   + 1e+08 h[(2,_1),2,2] <= 1e+08
 Eq.2d__s=(2,_1),_j=2,_i=2: - y[(2,_1),2,2] + 1e+08 g[(2,_1),2,2]
   - 1e+08 h[(2,_1),2,2] >= -1e+08
 Eq.2e__s=(2,_1),_j=2,_i=2: y[(2,_1),2,2] + g[(2,_1),2,2]
   - 1e+08 h[(2,_1),2,2] <= 0
 Eq.2f__s=(2,_1),_j=2,_i=2: y[(2,_1),2,2] + 1e+08 g[(2,_1),2,2]
   + 1e+08 h[(2,_1),2,2] >= 0
 Eq.1__s=(2,_1),_j=3,_i=2: x[4] - y[(2,_1),3,2] = 1
 Eq.2a__s=(2,_1),_j=3,_i=2: y[(2,_1),3,2] - 1e+08 h[(2,_1),3,2] <= 0
 Eq.2b__s=(2,_1),_j=3,_i=2: y[(2,_1),3,2] - 1e+08 h[(2,_1),3,2] >= -1e+08
 Eq.2c__s=(2,_1),_j=3,_i=2: - y[(2,_1),3,2] + g[(2,_1),3,2]
   + 1e+08 h[(2,_1),3,2] <= 1e+08
 Eq.2d__s=(2,_1),_j=3,_i=2: - y[(2,_1),3,2] + 1e+08 g[(2,_1),3,2]
   - 1e+08 h[(2,_1),3,2] >= -1e+08
 Eq.2e__s=(2,_1),_j=3,_i=2: y[(2,_1),3,2] + g[(2,_1),3,2]
   - 1e+08 h[(2,_1),3,2] <= 0
 Eq.2f__s=(2,_1),_j=3,_i=2: y[(2,_1),3,2] + 1e+08 g[(2,_1),3,2]
   + 1e+08 h[(2,_1),3,2] >= 0
 Eq.3a__s=(2,_1),_j=1: g[(2,_1),1,1] + g[(2,_1),1,2] + 1e+08 z[(2,_1),1]
   <= 1e+08
 Eq.3b__s=(2,_1),_j=1: g[(2,_1),1,1] + g[(2,_1),1,2] + z[(2,_1),1] >= 1
 Eq.3a__s=(2,_1),_j=2: g[(2,_1),2,1] + g[(2,_1),2,2] + 1e+08 z[(2,_1),2]
   <= 1e+08
 Eq.3b__s=(2,_1),_j=2: g[(2,_1),2,1] + g[(2,_1),2,2] + z[(2,_1),2] >= 1
 Eq.3a__s=(2,_1),_j=3: g[(2,_1),3,1] + g[(2,_1),3,2] + 1e+08 z[(2,_1),3]
   <= 1e+08
 Eq.3b__s=(2,_1),_j=3: g[(2,_1),3,1] + g[(2,_1),3,2] + z[(2,_1),3] >= 1
 Eq.3c__s=(2,_1): z[(2,_1),1] + z[(2,_1),2] + z[(2,_1),3] >= 1
 Eq.5a__j=1: - x[1] + f[1] <= 0
 Eq.5b__j=1: x[1] - 2 f[1] <= 0
 Eq.5a__j=2: - x[2] + f[2] <= 0
 Eq.5b__j=2: x[2] - 2 f[2] <= 0
 Eq.5a__j=3: - x[3] + f[3] <= 0
 Eq.5b__j=3: x[3] - 2 f[3] <= 0
 Eq.5a__j=4: - x[4] + f[4] <= 0
 Eq.5b__j=4: x[4] - 2 f[4] <= 0
Bounds
 x[1] <= 2
 x[2] <= 2
 x[3] <= 2
 x[4] <= 2
 -2 <= y[(1,_2),1,1] <= 2
 -2 <= y[(1,_2),1,2] <= 2
 -2 <= y[(2,_1),1,1] <= 2
 -2 <= y[(2,_1),1,2] <= 2
 -2 <= y[(1,_2),2,1] <= 2
 -2 <= y[(1,_2),2,2] <= 2
 -2 <= y[(2,_1),2,1] <= 2
 -2 <= y[(2,_1),2,2] <= 2
 -2 <= y[(1,_2),3,1] <= 2
 -2 <= y[(1,_2),3,2] <= 2
 -2 <= y[(2,_1),3,1] <= 2
 -2 <= y[(2,_1),3,2] <= 2
Binaries
 f[1] f[2] f[3] f[4] g[(1,_2),1,1] h[(1,_2),1,1] g[(1,_2),1,2]
 h[(1,_2),1,2] z[(1,_2),1] g[(2,_1),1,1] h[(2,_1),1,1] g[(2,_1),1,2]
 h[(2,_1),1,2] z[(2,_1),1] g[(1,_2),2,1] h[(1,_2),2,1] g[(1,_2),2,2]
 h[(1,_2),2,2] z[(1,_2),2] g[(2,_1),2,1] h[(2,_1),2,1] g[(2,_1),2,2]
 h[(2,_1),2,2] z[(2,_1),2] g[(1,_2),3,1] h[(1,_2),3,1] g[(1,_2),3,2]
 h[(1,_2),3,2] z[(1,_2),3] g[(2,_1),3,1] h[(2,_1),3,1] g[(2,_1),3,2]
 h[(2,_1),3,2] z[(2,_1),3]
Generals
 x[1] x[2] x[3] x[4]
End
